Route #1: 7 53 33 49 9 2 64 67 21
Route #2: 28 34 65 27 61 18 31
Route #3: 48 50 36 1 10 32 17
Route #4: 52 29 38 12 66 19
Route #5: 51 6 3 15 68 39 56
Route #6: 58 13 44 22 40 16 5 54
Route #7: 42 11 63 46 37 62 43 26
Route #8: 57 14 25 47 4 60 55 24
Route #9: 30 45 35 20 41 8 59 23
cost 1547.3243408203125